p cnf 14 24
14 -13 9 0
-14 12 -11 0
14 -12 -6 0
14 -11 -7 0
-14 -11 5 0
14 9 8 0
14 9 1 0
-14 -8 7 0
-14 -6 1 0
12 9 5 0
-12 -7 -1 0
11 -10 2 0
11 -8 7 0
11 5 -3 0
10 -9 6 0
10 9 -5 0
10 9 5 0
-10 -8 -7 0
9 8 3 0
-9 8 2 0
9 -6 -4 0
-8 7 5 0
-7 4 3 0
7 -2 -1 0
